certificates/rado_a14_c292_N27.cnf
c Rad2 upper bound instance: x1 + 14*x2 - x3 = 292, interval [1,27]
p cnf 27 104
1 3 21 0
-1 -3 -21 0
1 17 22 0
-1 -17 -22 0
2 4 21 0
-2 -4 -21 0
2 18 22 0
-2 -18 -22 0
3 5 21 0
-3 -5 -21 0
3 19 22 0
-3 -19 -22 0
4 6 21 0
-4 -6 -21 0
4 20 22 0
-4 -20 -22 0
5 7 21 0
-5 -7 -21 0
5 21 22 0
-5 -21 -22 0
6 8 21 0
-6 -8 -21 0
6 22 0
-6 -22 0
7 9 21 0
-7 -9 -21 0
7 22 23 0
-7 -22 -23 0
8 10 21 0
-8 -10 -21 0
8 22 24 0
-8 -22 -24 0
9 11 21 0
-9 -11 -21 0
9 22 25 0
-9 -22 -25 0
10 12 21 0
-10 -12 -21 0
10 22 26 0
-10 -22 -26 0
11 13 21 0
-11 -13 -21 0
11 22 27 0
-11 -22 -27 0
12 14 21 0
-12 -14 -21 0
1 13 20 0
-1 -13 -20 0
13 15 21 0
-13 -15 -21 0
2 14 20 0
-2 -14 -20 0
14 16 21 0
-14 -16 -21 0
3 15 20 0
-3 -15 -20 0
15 17 21 0
-15 -17 -21 0
4 16 20 0
-4 -16 -20 0
16 18 21 0
-16 -18 -21 0
5 17 20 0
-5 -17 -20 0
17 19 21 0
-17 -19 -21 0
6 18 20 0
-6 -18 -20 0
18 20 21 0
-18 -20 -21 0
7 19 20 0
-7 -19 -20 0
19 21 0
-19 -21 0
8 20 0
-8 -20 0
20 21 22 0
-20 -21 -22 0
9 20 21 0
-9 -20 -21 0
21 23 0
-21 -23 0
10 20 22 0
-10 -20 -22 0
21 22 24 0
-21 -22 -24 0
11 20 23 0
-11 -20 -23 0
21 23 25 0
-21 -23 -25 0
12 20 24 0
-12 -20 -24 0
21 24 26 0
-21 -24 -26 0
13 20 25 0
-13 -20 -25 0
21 25 27 0
-21 -25 -27 0
14 20 26 0
-14 -20 -26 0
1 19 27 0
-1 -19 -27 0
15 20 27 0
-15 -20 -27 0
