certificates/rado_a14_c292_N27.drat
21 -27 0
22 24 -21 0
-22 -27 0
-27 0
-21 22 0
d 24 -21 22 0
22 0
-6 0
21 0
-19 0
-23 0
-24 0
-5 0
-20 0
1 0
17 0
8 0
11 0
12 0
15 0
7 0
18 0
-3 0
0
